p edge 60 167
e 1 3
e 1 31
e 1 35
e 1 36
e 1 37
e 1 47
e 1 48
e 2 8
e 2 12
e 2 26
e 2 29
e 2 41
e 2 59
e 3 5
e 3 16
e 3 57
e 3 58
e 4 9
e 4 37
e 4 39
e 4 48
e 4 52
e 4 58
e 5 6
e 5 9
e 5 12
e 5 13
e 5 17
e 5 27
e 5 30
e 5 35
e 5 52
e 5 57
e 5 60
e 6 11
e 6 19
e 6 57
e 7 53
e 7 54
e 7 59
e 8 25
e 8 27
e 8 31
e 8 49
e 8 60
e 9 21
e 9 29
e 9 30
e 9 41
e 9 50
e 10 25
e 11 14
e 11 27
e 11 29
e 11 39
e 12 37
e 12 38
e 13 15
e 13 17
e 13 21
e 13 22
e 13 38
e 13 47
e 13 51
e 13 60
e 14 17
e 14 19
e 14 23
e 14 27
e 14 54
e 15 28
e 15 29
e 15 31
e 15 42
e 15 57
e 16 38
e 17 24
e 17 26
e 17 39
e 17 46
e 18 24
e 18 32
e 18 34
e 18 42
e 18 45
e 18 58
e 18 59
e 19 28
e 19 30
e 19 35
e 19 45
e 20 24
e 20 33
e 20 37
e 20 41
e 20 56
e 21 27
e 21 33
e 21 60
e 22 28
e 22 40
e 22 57
e 22 58
e 23 54
e 23 55
e 24 27
e 24 33
e 24 57
e 24 59
e 25 28
e 25 30
e 25 51
e 25 52
e 26 37
e 26 43
e 26 44
e 26 58
e 26 60
e 27 33
e 27 42
e 27 53
e 27 54
e 27 57
e 27 58
e 28 36
e 28 55
e 29 35
e 29 45
e 29 52
e 30 44
e 30 48
e 30 51
e 30 60
e 31 33
e 31 35
e 32 43
e 32 45
e 33 34
e 33 37
e 34 37
e 34 45
e 35 36
e 35 43
e 36 37
e 36 43
e 36 55
e 36 59
e 37 41
e 37 50
e 38 51
e 38 52
e 38 54
e 38 55
e 39 40
e 39 43
e 39 58
e 40 54
e 40 58
e 41 52
e 41 54
e 41 58
e 43 45
e 45 50
e 45 57
e 47 49
e 49 54
e 51 60
